c
c
c
c
c
19 190
0 0 -1
0 1 29
0 2 17
0 3 22
0 4 28
0 5 28
0 6 8
0 7 19
0 8 1
0 9 20
0 10 1
0 11 11
0 12 17
0 13 22
0 14 4
0 15 20
0 16 24
0 17 29
0 18 21
1 1 -1
1 2 24
1 3 10
1 4 9
1 5 22
1 6 13
1 7 12
1 8 25
1 9 5
1 10 14
1 11 26
1 12 30
1 13 16
1 14 18
1 15 9
1 16 12
1 17 9
1 18 4
2 2 -1
2 3 16
2 4 10
2 5 30
2 6 9
2 7 5
2 8 4
2 9 22
2 10 22
2 11 7
2 12 25
2 13 28
2 14 13
2 15 26
2 16 2
2 17 13
2 18 3
3 3 -1
3 4 14
3 5 22
3 6 15
3 7 15
3 8 8
3 9 23
3 10 15
3 11 14
3 12 12
3 13 4
3 14 16
3 15 27
3 16 10
3 17 27
3 18 27
4 4 -1
4 5 24
4 6 19
4 7 28
4 8 25
4 9 8
4 10 17
4 11 19
4 12 16
4 13 15
4 14 5
4 15 10
4 16 21
4 17 24
4 18 4
5 5 -1
5 6 8
5 7 3
5 8 18
5 9 7
5 10 10
5 11 23
5 12 19
5 13 25
5 14 14
5 15 19
5 16 13
5 17 15
5 18 28
6 6 -1
6 7 17
6 8 12
6 9 1
6 10 13
6 11 19
6 12 9
6 13 29
6 14 29
6 15 6
6 16 20
6 17 20
6 18 4
7 7 -1
7 8 30
7 9 17
7 10 7
7 11 21
7 12 23
7 13 1
7 14 5
7 15 26
7 16 22
7 17 12
7 18 30
8 8 -1
8 9 11
8 10 17
8 11 4
8 12 4
8 13 6
8 14 19
8 15 2
8 16 26
8 17 20
8 18 28
9 9 -1
9 10 7
9 11 8
9 12 28
9 13 23
9 14 25
9 15 27
9 16 28
9 17 10
9 18 11
10 10 -1
10 11 27
10 12 13
10 13 24
10 14 21
10 15 21
10 16 7
10 17 3
10 18 7
11 11 -1
11 12 16
11 13 28
11 14 8
11 15 6
11 16 9
11 17 24
11 18 11
12 12 -1
12 13 5
12 14 15
12 15 12
12 16 23
12 17 26
12 18 1
13 13 -1
13 14 20
13 15 18
13 16 22
13 17 1
13 18 2
14 14 -1
14 15 21
14 16 27
14 17 13
14 18 29
15 15 -1
15 16 7
15 17 19
15 18 27
16 16 -1
16 17 15
16 18 24
17 17 -1
17 18 3
18 18 -1
